presolving:
(round 1, fast)       776 del vars, 50 del conss, 0 add conss, 120650 chg bounds, 0 chg sides, 0 chg coeffs, 0 upgd conss, 0 impls, 0 clqs
(round 2, fast)       776 del vars, 50 del conss, 0 add conss, 120650 chg bounds, 600 chg sides, 0 chg coeffs, 0 upgd conss, 0 impls, 0 clqs
(round 3, fast)       105074 del vars, 104499 del conss, 0 add conss, 120650 chg bounds, 600 chg sides, 0 chg coeffs, 0 upgd conss, 0 impls, 0 clqs
   (1.5s) running MILP presolver
   (1.5s) MILP presolver found nothing
(round 4, exhaustive) 105074 del vars, 104499 del conss, 0 add conss, 120650 chg bounds, 600 chg sides, 0 chg coeffs, 15702 upgd conss, 0 impls, 0 clqs
   (1.7s) probing: 51/200 (25.5%) - 0 fixings, 0 aggregations, 0 implications, 0 bound changes
   (1.7s) probing aborted: 50/50 successive totally useless probings
   (1.7s) symmetry computation started: requiring (bin +, int -, cont +), (fixed: bin -, int +, cont -)
   (1.7s) no symmetry present
presolving (5 rounds: 5 fast, 2 medium, 2 exhaustive):
 105074 deleted vars, 104499 deleted constraints, 0 added constraints, 120650 tightened bounds, 0 added holes, 600 changed sides, 0 changed coefficients
 15702 implications, 0 cliques
presolved problem has 15902 variables (200 bin, 0 int, 0 impl, 15702 cont) and 16351 constraints
  15702 constraints of type <varbound>
    649 constraints of type <linear>
Presolving Time: 1.37

 time | node  | left  |LP iter|LP it/n|mem/heur|mdpt |vars |cons |rows |cuts |sepa|confs|strbr|  dualbound   | primalbound  |  gap   | compl. 
t 1.8s|     1 |     0 |     0 |     - | trivial|   0 |  15k|  16k|   0 |   0 |  0 |   0 |   0 |-4.149110e+08 | 7.374345e+07 |    Inf | unknown
p 2.9s|     1 |     0 |  6005 |     - |   locks|   0 |  15k|  16k|  16k|   0 |  0 |   0 |   0 |-4.149110e+08 | 5.437220e+07 |    Inf | unknown
i 2.9s|     1 |     0 |  6005 |     - |  oneopt|   0 |  15k|  16k|  16k|   0 |  0 |   0 |   0 |-4.149110e+08 | 5.432229e+07 |    Inf | unknown
  6.1s|     1 |     0 | 14875 |     - |   446M |   0 |  15k|  16k|  16k|   0 |  0 |   0 |   0 | 5.397250e+07 | 5.432229e+07 |   0.65%| unknown
r 6.1s|     1 |     0 | 14875 |     - |simplero|   0 |  15k|  16k|  16k|   0 |  0 |   0 |   0 | 5.397250e+07 | 5.409052e+07 |   0.22%| unknown
  6.4s|     1 |     0 | 15007 |     - |   455M |   0 |  15k|  16k|  16k|   7 |  1 |   0 |   0 | 5.397370e+07 | 5.409052e+07 |   0.22%| unknown
r 6.4s|     1 |     0 | 15007 |     - |simplero|   0 |  15k|  16k|  16k|   7 |  1 |   0 |   0 | 5.397370e+07 | 5.407714e+07 |   0.19%| unknown
  6.6s|     1 |     0 | 15110 |     - |   460M |   0 |  15k|  16k|  16k|  12 |  2 |   0 |   0 | 5.397411e+07 | 5.407714e+07 |   0.19%| unknown
r 6.6s|     1 |     0 | 15110 |     - |simplero|   0 |  15k|  16k|  16k|  12 |  2 |   0 |   0 | 5.397411e+07 | 5.406948e+07 |   0.18%| unknown
  6.8s|     1 |     0 | 15172 |     - |   466M |   0 |  15k|  16k|  16k|  22 |  3 |   0 |   0 | 5.397448e+07 | 5.406948e+07 |   0.18%| unknown
  7.0s|     1 |     0 | 15217 |     - |   468M |   0 |  15k|  16k|  16k|  25 |  4 |   0 |   0 | 5.397456e+07 | 5.406948e+07 |   0.18%| unknown
  7.3s|     1 |     0 | 15412 |     - |   471M |   0 |  15k|  16k|  16k|  42 |  5 |   0 |   0 | 5.397514e+07 | 5.406948e+07 |   0.17%| unknown
  7.5s|     1 |     0 | 15515 |     - |   474M |   0 |  15k|  16k|  16k|  51 |  6 |   0 |   0 | 5.397538e+07 | 5.406948e+07 |   0.17%| unknown
  7.7s|     1 |     0 | 15627 |     - |   478M |   0 |  15k|  16k|  16k|  58 |  7 |   0 |   0 | 5.397548e+07 | 5.406948e+07 |   0.17%| unknown
  7.9s|     1 |     0 | 15693 |     - |   481M |   0 |  15k|  16k|  16k|  61 |  8 |   0 |   0 | 5.397551e+07 | 5.406948e+07 |   0.17%| unknown
 time | node  | left  |LP iter|LP it/n|mem/heur|mdpt |vars |cons |rows |cuts |sepa|confs|strbr|  dualbound   | primalbound  |  gap   | compl. 
  8.1s|     1 |     0 | 15749 |     - |   485M |   0 |  15k|  16k|  16k|  73 |  9 |   0 |   0 | 5.397565e+07 | 5.406948e+07 |   0.17%| unknown
  8.2s|     1 |     0 | 15779 |     - |   488M |   0 |  15k|  16k|  16k|  79 | 10 |   0 |   0 | 5.397568e+07 | 5.406948e+07 |   0.17%| unknown
  8.4s|     1 |     0 | 15816 |     - |   491M |   0 |  15k|  16k|  16k|  87 | 11 |   0 |   0 | 5.397571e+07 | 5.406948e+07 |   0.17%| unknown
r 9.1s|     1 |     0 | 17326 |     - |intshift|   0 |  15k|  16k|  16k|  87 | 11 |   0 |   0 | 5.397571e+07 | 5.403081e+07 |   0.10%| unknown
d10.8s|     1 |     0 | 18915 |     - |farkasdi|   0 |  15k|  16k|  16k|   0 | 11 |   0 |   0 | 5.397571e+07 | 5.403056e+07 |   0.10%| unknown
d10.8s|     1 |     0 | 18916 |     - |farkasdi|   0 |  15k|  16k|  16k|   0 | 11 |   0 |   0 | 5.397571e+07 | 5.402256e+07 |   0.09%| unknown
d10.9s|     1 |     0 | 18933 |     - |farkasdi|   0 |  15k|  16k|  16k|   0 | 11 |   0 |   0 | 5.397571e+07 | 5.401478e+07 |   0.07%| unknown
d10.9s|     1 |     0 | 18985 |     - |farkasdi|   0 |  15k|  16k|  16k|   0 | 11 |   0 |   0 | 5.397571e+07 | 5.400758e+07 |   0.06%| unknown
d11.0s|     1 |     0 | 19068 |     - |farkasdi|   0 |  15k|  16k|  16k|   0 | 11 |   0 |   0 | 5.397571e+07 | 5.400131e+07 |   0.05%| unknown
d11.0s|     1 |     0 | 19120 |     - |farkasdi|   0 |  15k|  16k|  16k|   0 | 11 |   0 |   0 | 5.397571e+07 | 5.399069e+07 |   0.03%| unknown
d12.2s|     1 |     0 | 20131 |     - |farkasdi|   0 |  15k|  16k|  16k|   0 | 11 |   0 |   0 | 5.397571e+07 | 5.399052e+07 |   0.03%| unknown
 12.6s|     1 |     0 | 20131 |     - |   598M |   0 |  15k|  16k|  16k|  87 | 11 |   0 |   0 | 5.397571e+07 | 5.399052e+07 |   0.03%| unknown
 12.8s|     1 |     0 | 20171 |     - |   602M |   0 |  15k|  16k|  16k|  89 | 12 |   0 |   0 | 5.397573e+07 | 5.399052e+07 |   0.03%| unknown
 17.7s|     1 |     2 | 20171 |     - |   636M |   0 |  15k|  16k|  16k|  89 | 13 |   0 |  22 | 5.397581e+07 | 5.399052e+07 |   0.03%| unknown
d33.3s|     6 |     7 | 21279 |2285.6 |pscostdi|   5 |  15k|  16k|  16k|   0 |  1 |   0 | 102 | 5.397581e+07 | 5.398803e+07 |   0.02%| unknown
 time | node  | left  |LP iter|LP it/n|mem/heur|mdpt |vars |cons |rows |cuts |sepa|confs|strbr|  dualbound   | primalbound  |  gap   | compl. 
d33.5s|     6 |     6 | 21511 |2332.0 |pscostdi|   5 |  15k|  16k|  16k|   0 |  1 |   0 | 102 | 5.397581e+07 | 5.397922e+07 |   0.01%|   0.81%
r58.6s|    55 |    47 | 25917 | 297.5 |intshift|  18 |  15k|  16k|  16k| 132 |  1 |   8 | 218 | 5.397592e+07 | 5.397791e+07 |   0.00%|   1.44%
r61.8s|    78 |    50 | 27709 | 231.9 |intshift|  21 |  15k|  16k|  16k| 163 |  1 |  13 | 230 | 5.397592e+07 | 5.397705e+07 |   0.00%|   4.34%
*63.4s|    89 |    15 | 28631 | 213.4 |strongbr|  21 |  15k|  16k|  16k| 187 |  1 |  15 | 236 | 5.397592e+07 | 5.397655e+07 |   0.00%|  27.40%
 64.3s|   100 |    18 | 29235 | 195.8 |   689M |  21 |  15k|  16k|  16k| 190 |  2 |  20 | 242 | 5.397604e+07 | 5.397655e+07 |   0.00%|  44.44%
*65.9s|   129 |    17 | 30307 | 159.8 |    LP  |  21 |  15k|  16k|  16k| 194 |  1 |  23 | 249 | 5.397612e+07 | 5.397649e+07 |   0.00%|  48.50%

SCIP Status        : problem is solved [optimal solution found]
Solving Time (sec) : 70.07
Solving Nodes      : 196
Primal Bound       : +5.39764905846429e+07 (350 solutions)
Dual Bound         : +5.39764905846429e+07
Gap                : 0.00 %
Solve Status: optimal
Solve Time: 70.14 seconds
Objective Value: 53976490.58
